&INPUT
  fildyn = 'CMgO3.dyn',
  asr    = 'simple',
/
