&INPUT
  fildyn = 'O4SSr.dyn',
  asr    = 'simple',
/
