&CONTROL
   calculation      = 'scf'
   restart_mode     = 'from_scratch'
   tprnfor          = .true.
   outdir           = './out'
   prefix           = 'O4SSr'
   disk_io          = 'low'
   pseudo_dir       = '/data/pseudopotentials'
/
&SYSTEM
   ibrav            = 0
   ecutwfc          = 50
   ecutrho          = 400
   nosym            = .true.
   occupations      = 'fixed'
   ntyp             = 3
   nat              = 24
/
&ELECTRONS
   electron_maxstep = 200
   conv_thr         = 1e-10
   mixing_beta      = 0.3
/
&IONS
/
&CELL
/
ATOMIC_SPECIES
Sr 87.62 Sr.pbe-spn-kjpaw_psl.1.0.0.UPF
S 32.06 s_pbe_v1.4.uspp.F.UPF
O 15.999 O.pbe-n-kjpaw_psl.0.1.UPF

K_POINTS automatic
3 3 3  0 0 0

CELL_PARAMETERS angstrom
5.34282259000000 0.00000000000000 0.00000000000000
0.00000000000000 6.87054329000000 0.00000000000000
0.00000000000000 0.00000000000000 8.35577502000000

ATOMIC_POSITIONS angstrom
Sr 1.3357056475 2.3562270568 5.7120749841  
Sr 4.0071169425 4.5143162332 2.6437000359  
Sr 4.0071169425 5.7914987018 6.8215875459  
Sr 1.3357056475 1.0790445882 1.5341874741  
S 4.0071169425 2.1694272218 7.8355498150  
S 1.3357056475 4.7011160682 0.5202252050  
S 1.3357056475 5.6046988668 4.6981127150  
S 4.0071169425 1.2658444232 3.6576623050  
O 2.5371709006 5.5668765947 0.6516358103  
O 5.2085821956 1.3036666953 7.7041392097  
O 2.8056516894 2.1316049497 3.5262516997  
O 0.1342403944 4.7389383403 4.8295233203  
O 2.8056516894 1.3036666953 7.7041392097  
O 0.1342403944 5.5668765947 0.6516358103  
O 2.5371709006 4.7389383403 4.8295233203  
O 5.2085821956 2.1316049497 3.5262516997  
O 4.0071169425 0.6313970884 4.9715447572  
O 1.3357056475 6.2391462016 3.3842302628  
O 1.3357056475 4.0666687334 7.5621177728  
O 4.0071169425 2.8038745566 0.7936572472  
O 4.0071169425 0.2850752617 2.5600227981  
O 1.3357056475 6.5854680283 5.7957522219  
O 1.3357056475 3.7203469067 1.6178647119  
O 4.0071169425 3.1501963833 6.7379103081  

