&INPUT
  fildyn = 'O2Zr.dyn',
  asr    = 'simple',
  filout = 'O2Zr.modes',
/
