&INPUT
  fildyn = 'CaO4S.dyn',
  asr    = 'simple',
/
