&CONTROL
   calculation      = 'scf'
   restart_mode     = 'from_scratch'
   tprnfor          = .true.
   outdir           = './out'
   prefix           = 'CaO4S'
   disk_io          = 'low'
   pseudo_dir       = '/data/pseudopotentials'
/
&SYSTEM
   ibrav            = 0
   ecutwfc          = 50
   ecutrho          = 400
   nosym            = .true.
   occupations      = 'fixed'
   ntyp             = 3
   nat              = 12
/
&ELECTRONS
   electron_maxstep = 200
   conv_thr         = 1e-10
   mixing_beta      = 0.3
/
&IONS
/
&CELL
/
ATOMIC_SPECIES
Ca 40.078 Ca.pbe-spn-kjpaw_psl.1.0.0.UPF
S 32.06 s_pbe_v1.4.uspp.F.UPF
O 15.999 O.pbe-n-kjpaw_psl.0.1.UPF

K_POINTS automatic
4 4 4  0 0 0

CELL_PARAMETERS angstrom
4.67132411000000 -0.01954145000000 -0.00000000000000
-0.53413518000000 4.64072819000000 0.00000000000000
-0.00000000000000 -0.00000000000000 7.00520065000000

ATOMIC_POSITIONS angstrom
Ca 1.4519548121 1.6218148212 5.2539004875  
Ca 2.6852341179 2.9993719188 1.7513001625  
S 3.5069424351 3.9172095239 5.2539004875  
S 0.6302464949 0.7039772161 1.7513001625  
O 0.3033810899 3.7949138196 5.2539004875  
O 3.8338078401 0.8262729204 1.7513001625  
O 3.7383777853 0.7196787786 5.2539004875  
O 0.3988111447 3.9015079614 1.7513001625  
O 1.2197756452 1.3624736827 0.5711361806  
O 2.9174132848 3.2587130573 4.0737365056  
O 1.2197756452 1.3624736827 2.9314641444  
O 2.9174132848 3.2587130573 6.4340644694  

