&INPUT
  fildyn = 'BaO4W.dyn',
  asr    = 'simple',
/
