&CONTROL
   calculation      = 'scf'
   restart_mode     = 'from_scratch'
   tprnfor          = .true.
   outdir           = './out'
   prefix           = 'BaO4W'
   disk_io          = 'low'
   pseudo_dir       = '/data/pseudopotentials'
/
&SYSTEM
   ibrav            = 0
   ecutwfc          = 60
   ecutrho          = 480
   nosym            = .true.
   occupations      = 'fixed'
   ntyp             = 3
   nat              = 12
/
&ELECTRONS
   electron_maxstep = 200
   conv_thr         = 1e-10
   mixing_beta      = 0.3
/
&IONS
/
&CELL
/
ATOMIC_SPECIES
Ba 137.327 Ba.pbe-spn-kjpaw_psl.1.0.0.UPF
W 183.84 w_pbe_v1.2.uspp.F.UPF
O 15.999 O.pbe-n-kjpaw_psl.0.1.UPF

K_POINTS automatic
4 4 4  0 0 0

CELL_PARAMETERS angstrom
-2.83336586000000 2.83336595000000 6.36926687000000
2.83336586000000 -2.83336595000000 6.36926687000000
2.83336595000000 2.83336586000000 -6.36926687000000

ATOMIC_POSITIONS angstrom
Ba 2.8333659050 -0.0000000450 3.1956946860  
Ba -0.0000000000 0.0000000000 6.3803281210  
W 0.0000000450 2.8333659050 3.1949557237  
W 0.0000000000 -0.0000000000 0.0103222887  
O 0.7111381425 1.3075781236 -0.9902086469  
O 2.1222278075 1.5257877364 5.3790582231  
O 3.5443868028 1.3069675449 -2.1727733570  
O 1.3075781686 2.1222277625 2.1944247881  
O 4.3597642201 0.7110208078 1.0118600780  
O -1.5263982701 2.1223450522 7.3811269480  
O 1.5257877814 0.7111380975 8.5636916581  
O -0.7110208528 1.5263983151 4.1964935130  

