&INPUT
  fildyn = 'BaMoO4.dyn',
  asr    = 'simple',
/
