&INPUT
  fildyn = 'CaO3Zr.dyn',
  asr    = 'simple',
/
