&CONTROL
   calculation      = 'scf'
   restart_mode     = 'from_scratch'
   tstress          = .true.
   tprnfor          = .true.
   outdir           = './out'
   prefix           = 'CaO3Zr'
   disk_io          = 'low'
   pseudo_dir       = '/data/pseudopotentials'
/
&SYSTEM
   ibrav            = 0
   ecutwfc          = 50
   ecutrho          = 400
   nosym            = .true.
   occupations      = 'fixed'
   ntyp             = 3
   nat              = 20
/
&ELECTRONS
   electron_maxstep = 200
   conv_thr         = 1e-10
   mixing_beta      = 0.3
/
&IONS
/
&CELL
/
ATOMIC_SPECIES
Ca 40.078 Ca.pbe-spn-kjpaw_psl.1.0.0.UPF
Zr 91.224 zr_pbe_v1.uspp.F.UPF
O 15.999 O.pbe-n-kjpaw_psl.0.1.UPF

K_POINTS automatic
6 6 6  0 0 0

CELL_PARAMETERS angstrom
5.58500572000000 -0.00000000000000 0.00000000000000
0.00000000000000 5.77809678000000 0.00000000000000
0.00000000000000 0.00000000000000 8.01738023000000

ATOMIC_POSITIONS angstrom
Ca 0.0756409718 5.4778778497 2.0043450575  
Ca 2.8681438318 3.1892673203 6.0130351725  
Ca 2.7168618882 2.5888294597 2.0043450575  
Ca 5.5093647482 0.3002189303 6.0130351725  
Zr 0.0000000000 2.8890483900 0.0000000000  
Zr 2.7925028600 0.0000000000 0.0000000000  
Zr 2.7925028600 0.0000000000 4.0086901150  
Zr 0.0000000000 2.8890483900 4.0086901150  
O 1.6887650993 4.0464467642 3.5550307435  
O 4.4812679593 4.6206984058 4.4623494865  
O 1.1037377607 1.1573983742 0.4536593715  
O 3.8962406207 1.7316500158 7.5637208585  
O 3.8962406207 1.7316500158 4.4623494865  
O 1.1037377607 1.1573983742 3.5550307435  
O 4.4812679593 4.6206984058 7.5637208585  
O 1.6887650993 4.0464467642 0.4536593715  
O 3.3892393865 0.2401312885 2.0043450575  
O 0.5967365265 2.6489171015 6.0130351725  
O 4.9882691935 3.1291796785 2.0043450575  
O 2.1957663335 5.5379654915 6.0130351725  

