&INPUT
  fildyn = 'MgO4S_relax.dyn',
  asr    = 'simple',
/
