&INPUT
  fildyn = 'MgO4S.dyn',
  asr    = 'simple',
/
