&INPUTPH
  prefix    = 'MgO4S',
  outdir    = './out2',
  fildyn    = 'MgO4S_relax.dyn',
  tr2_ph    = 1.0d-12,
  ldisp     = .false.,
  epsil     = .true.,
  trans     = .true.,
/
0.0 0.0 0.0
