&INPUT
  fildyn = 'CaO3Ti.dyn',
  asr    = 'simple',
/
