&INPUTPH
  prefix    = 'CaO3Ti',
  outdir    = './out',
  fildyn    = 'CaO3Ti.dyn',
  tr2_ph    = 1.0d-12,
  ldisp     = .false.,
  epsil     = .true.,
  trans     = .true.,
/
0.0 0.0 0.0
