&INPUT
  fildyn = 'O2Si.dyn',
  asr    = 'simple',
  filout = 'O2Si.modes',
/
