&INPUT
  fildyn = 'Ca3O8P2.dyn',
  asr    = 'simple',
/
