&INPUT
  fildyn = 'O4TiZr.dyn',
  asr    = 'simple',
/
