&CONTROL
   calculation      = 'scf'
   restart_mode     = 'from_scratch'
   tstress          = .true.
   tprnfor          = .true.
   outdir           = './out'
   prefix           = 'O4TiZr'
   disk_io          = 'low'
   pseudo_dir       = '/data/pseudopotentials'
/
&SYSTEM
   ibrav            = 0
   ecutwfc          = 50
   ecutrho          = 400
   nosym            = .true.
   occupations      = 'fixed'
   ntyp             = 3
   nat              = 24
/
&ELECTRONS
   electron_maxstep = 200
   conv_thr         = 1e-10
   mixing_beta      = 0.3
/
&IONS
/
&CELL
/
ATOMIC_SPECIES
Zr 91.224 zr_pbe_v1.uspp.F.UPF
Ti 47.867 ti_pbe_v1.4.uspp.F.UPF
O 15.999 O.pbe-n-kjpaw_psl.0.1.UPF

K_POINTS automatic
6 6 4  0 0 0

CELL_PARAMETERS angstrom
4.85301900000000 0.00000000000000 0.00000000000000
-0.00927600000000 5.66443100000000 0.00000000000000
-0.30747300000000 -0.05985200000000 10.18590700000000

ATOMIC_POSITIONS angstrom
Zr -0.2553161056 3.9104851760 8.8987037465  
Zr 4.7751669835 1.6921558695 1.2015295897  
Zr 4.7227777444 3.9103404559 3.8372654428  
Zr 2.2661715998 1.0391625456 3.8993791036  
Ti 4.6538041090 1.7097011867 6.4211550292  
Ti 2.1573128371 0.9590985308 8.8577360285  
Ti 2.3869782062 4.6546275985 1.2598846509  
Ti 2.2415034016 4.5484249131 6.3874498629  
O 1.1199505876 3.4862991442 0.4510727056  
O 1.0368592031 3.4015673353 5.5598652910  
O 0.9299496576 2.2450108960 2.9423622115  
O 0.8814368520 2.0925686906 8.0401743891  
O 1.2418699849 4.9893619865 7.9837037207  
O 1.2130101296 5.0780004684 2.7942387519  
O 1.0187522346 0.5496165789 5.5473977408  
O 1.3769553908 0.6038481604 0.2405198220  
O 3.2489882295 4.9854615062 4.8001799751  
O 3.2297386308 5.0657532340 9.9009766235  
O 3.3896959238 0.6125455902 7.2782583596  
O 3.4494742393 0.5219121601 2.2311821847  
O 3.5503807875 3.4326923744 2.0992746891  
O 3.7171414489 2.1680157318 4.7872133155  
O 3.3953009204 2.1641264454 9.6598660189  
O 3.5403557239 3.4341543687 7.1515049329  

