&INPUT
  fildyn = 'Ca2O4Si.dyn',
  asr    = 'simple',
/
