&INPUT
  fildyn = 'H2CaO2.dyn',
  asr    = 'simple',
/
