&INPUTPH
  prefix    = 'H2CaO2',
  outdir    = './out',
  fildyn    = 'H2CaO2.dyn',
  tr2_ph    = 1.0d-16,
  ldisp     = .false.,
  epsil     = .true.,
  trans     = .true.,
/
0.0 0.0 0.0
